sifdecoder -A pc64.lnx.gfo -st   HAGER2

 Problem name: HAGER2

 Double precision version will be formed

 The objective function uses 5000 nonlinear groups
 
 There are 2500 linear equality constraints
 
 There are 5000 free variables
 There is 1 fixed variable
 
 
 File successfully decoded
 CUTEST: tools (double precision version) compiled successfully
 CUTEst: ipopt (double precision version) compiled successfully

******************************************************************************
This program contains Ipopt, a library for large-scale nonlinear optimization.
 Ipopt is released as open source code under the Eclipse Public License (EPL).
         For more information visit http://projects.coin-or.org/Ipopt
******************************************************************************

This is Ipopt version trunk, running with linear solver ma57.

Number of nonzeros in equality constraint Jacobian...:     7499
Number of nonzeros in inequality constraint Jacobian.:        0
Number of nonzeros in Lagrangian Hessian.............:     7499

Total number of variables............................:     5000
                     variables with only lower bounds:        0
                variables with lower and upper bounds:        0
                     variables with only upper bounds:        0
Total number of equality constraints.................:     2500
Total number of inequality constraints...............:        0
        inequality constraints with only lower bounds:        0
   inequality constraints with lower and upper bounds:        0
        inequality constraints with only upper bounds:        0

iter    objective    inf_pr   inf_du lg(mu)  ||d||  lg(rg) alpha_du alpha_pr  ls
   0  6.6666667e-05 2.50e+03 2.67e-08  -1.0 0.00e+00    -  0.00e+00 0.00e+00   0
   1  4.3208226e-01 8.92e-13 3.64e-16  -1.0 1.73e+00    -  1.00e+00 1.00e+00h  1

Number of Iterations....: 1

                                   (scaled)                 (unscaled)
Objective...............:   4.3208225680473722e-01    4.3208225680473722e-01
Dual infeasibility......:   3.6407508952063239e-16    3.6407508952063239e-16
Constraint violation....:   3.5674559663387694e-14    8.9195317798385076e-13
Complementarity.........:   0.0000000000000000e+00    0.0000000000000000e+00
Overall NLP error.......:   3.5674559663387694e-14    8.9195317798385076e-13


Number of objective function evaluations             = 2
Number of objective gradient evaluations             = 2
Number of equality constraint evaluations            = 2
Number of inequality constraint evaluations          = 0
Number of equality constraint Jacobian evaluations   = 2
Number of inequality constraint Jacobian evaluations = 0
Number of Lagrangian Hessian evaluations             = 1
Total CPU secs in IPOPT (w/o function evaluations)   =      0.081
Total CPU secs in NLP function evaluations           =      0.011

EXIT: Optimal Solution Found.

************************ CUTEst statistics ************************


 Package used            :  IPOPT
 Problem                 :  HAGER2    
 # variables             =            5001
 # constraints           =            2500
 # objective functions   =        0.5000000E+01
 # objective gradients   =        0.3000000E+01
 # objective Hessians    =        0.2000000E+01
 # Hessian-vector prdct  =        0.0000000E+00
 # constraints functions =        0.6000000E+01
 # constraints gradients =        0.4000000E+01
 # constraints Hessians  =        0.2000000E+01
 Exit code               =               0
 Final f                 =        4.3208225680473722D-01
 Bounds feasibility      =        0.0000000000000000D+00
 Set up time             =            0.48 seconds
 Solve time              =            0.18 seconds


******************************************************************

